%chk=methanowater_waterdonor.chk
# hf/3-21g geom=connectivity

Title Card Required

0 1
 O                 -9.56962001    2.36708857    0.00000000
 H                 -8.60962001    2.36708857    0.00000000
 H                 -9.89007460    3.27202440    0.00000000
 C                 -6.12658212    0.72151895   -0.00000007
 H                 -5.90016446    0.09425664    0.83676575
 H                 -5.42389322    0.53597945   -0.78530473
 H                 -7.11548130    0.50811041   -0.34847562
 O                 -6.04667228    2.09299594    0.39694485
 H                 -5.15074797    2.32445816   -0.16162373

 1 2 1.0 3 1.0
 2
 3
 4 5 1.0 6 1.0 7 1.0 8 1.0
 5
 6
 7
 8 9 1.0
 9

