%chk=methanowaterdimer.chk
# hf/3-21g geom=connectivity

Title Card Required

0 1
 C                 -6.78414507   -0.97401882   -0.10156568
 H                 -6.42749065   -1.98282882   -0.10156568
 H                 -6.42747223   -0.46962063   -0.97521718
 H                 -7.85414507   -0.97400563   -0.10156568
 O                 -6.30747016   -0.29991656    1.06602465
 H                 -5.74545685   -0.97175700    1.27419342
 O                 -3.32679232   -2.81789314    1.72252816
 H                 -2.66052005   -2.67939335    1.04540256
 H                 -3.04301020   -3.52006152    2.31246653

 1 2 1.0 3 1.0 4 1.0 5 1.0
 2
 3
 4
 5 6 1.0
 6
 7 8 1.0 9 1.0
 8
 9

