%chk=h2o.chk
# hf/3-21g geom=connectivity

Title Card Required

0 1
 O                 -2.37974678    3.40506324    0.00000000
 H                 -1.41974678    3.40506324    0.00000000
 H                 -2.70020136    4.30999907    0.00000000

 1 2 1.0 3 1.0
 2
 3

