%chk=CAMA.chk
# hf/3-21g geom=connectivity

Title Card Required

0 1
 C                 -2.73454681    0.27740193   -0.86786766
 O                 -4.16454681    0.27741955   -0.86786766
 O                 -2.08450472    1.06960417   -2.24001700
 O                 -2.02861328   -1.73988416   -0.57661140
 H                 -2.31978234   -1.03822173    1.15326252
 C                 -2.41622609    1.95381089   -3.50820336
 H                 -2.05955325    2.45820908   -2.63455185
 H                 -2.05955325    2.45820908   -4.38185486
 H                 -3.07982044    2.15580029   -3.79789920

 1 2 2.0 3 1.0 4 1.0
 2
 3 6 1.0
 4 5 1.0
 5
 6 7 1.0 8 1.0 9 1.0
 7
 8
 9

