%chk=cycloboat.chk
# hf/3-21g geom=connectivity

Title Card Required

0 1
 C                 -4.17056132   -0.57986520    0.00000000
 C                 -2.65367132   -0.57986520    0.00000000
 C                 -2.07594932    0.82278480    0.00000000
 C                 -2.98883632    1.80342180    0.70521200
 C                 -4.32756932    1.92435080    0.00164600
 C                 -4.73175832    0.64018280   -0.69809900
 H                 -1.07204832    0.81601680    0.49858600
 H                 -2.28902832   -1.13870020    0.90147200
 H                 -2.27543332   -1.12994820   -0.90137200
 H                 -4.36061732    0.65750480   -1.75686600
 H                 -4.54445732   -0.59990920    1.05781200
 H                 -3.14979832    1.45917680    1.76082100
 H                 -2.49715232    2.80944280    0.75404800
 H                 -4.28439232    2.75264080   -0.75327300
 H                 -5.10997032    2.20738680    0.75367200
 H                 -5.84975032    0.57035180   -0.73822700
 H                 -4.54639032   -1.50829720   -0.50329800
 H                 -1.91998932    1.16409580   -1.05740600

 1 2 1.0 6 1.0 11 1.0 17 1.0
 2 3 1.0 8 1.0 9 1.0
 3 4 1.0 7 1.0 18 1.0
 4 5 1.0 12 1.0 13 1.0
 5 6 1.0 14 1.0 15 1.0
 6 10 1.0 16 1.0
 7
 8
 9
 10
 11
 12
 13
 14
 15
 16
 17
 18

