%chk=butanoltrans.chk
# hf/3-21g geom=connectivity

Title Card Required

0 1
 C                  3.29945668    4.82100600    3.46740757
 H                  3.65611111    3.81219600    3.46740757
 H                  3.65612952    5.32540419    4.34105907
 H                  3.65612952    5.32540419    2.59375606
 C                  1.75945668    4.82102498    3.46740757
 H                  1.40278410    4.31493325    4.34007923
 H                  1.40280276    5.82983326    3.46936357
 C                  1.24611416    4.09750793    2.20859759
 H                  1.60307691    3.08880927    2.20645298
 H                  1.60247847    4.60381733    1.33592625
 C                 -0.29388575    4.09705617    2.20886902
 H                 -0.65084763    5.10575496    2.21109666
 H                 -0.65025027    3.59067532    3.08149881
 O                 -0.77056098    3.42531453    1.03991911
 H                 -1.93671037    3.03292904    1.28776282

 1 2 1.0 3 1.0 4 1.0 5 1.0
 2
 3
 4
 5 6 1.0 7 1.0 8 1.0
 6
 7
 8 9 1.0 10 1.0 11 1.0
 9
 10
 11 12 1.0 13 1.0 14 1.0
 12
 13
 14 15 1.0
 15

