%chk=butanolgauche.chk
# hf/3-21g geom=connectivity

Title Card Required

0 1
 C                 -2.00102338    1.96959142    0.50759355
 H                 -1.64436896    0.96078141    0.50759355
 H                 -1.64435054    2.47398961    1.38124505
 H                 -3.07102338    1.96960460    0.50759355
 C                 -1.48768116    2.69554769   -0.74981142
 H                 -1.84593209    3.70379137   -0.75079016
 H                 -0.41768293    2.69722875   -0.74883364
 C                 -1.99872316    1.96796708   -2.00721451
 H                 -3.06872099    1.96595984   -2.00800337
 H                 -1.64016520    0.95983239   -2.00642389
 C                 -1.48582343    2.69423587   -3.26461958
 H                 -0.41582577    2.69631478   -3.26378835
 H                 -1.84444886    3.70234653   -3.26545188
 O                 -1.96027202    2.01856164   -4.43220806
 H                 -3.65098710    2.31816399   -4.97742226

 1 2 1.0 3 1.0 4 1.0 5 1.0
 2
 3
 4
 5 6 1.0 7 1.0 8 1.0
 6
 7
 8 9 1.0 10 1.0 11 1.0
 9
 10
 11 12 1.0 13 1.0 14 1.0
 12
 13
 14 15 1.0
 15

