%chk=benzophenone.chk
# hf/3-21g geom=connectivity

Title Card Required

0 1
 C                 -3.56962016   -0.08860759    0.00000000
 C                 -2.17446016   -0.08860759    0.00000000
 C                 -1.47692216    1.11914341    0.00000000
 C                 -2.17457616    2.32765241   -0.00119900
 C                 -3.56940116    2.32757441   -0.00167800
 C                 -4.26700216    1.11936841   -0.00068200
 H                 -4.11937916   -1.04092459    0.00045000
 H                 -1.62495216   -1.04112059    0.00131500
 H                 -0.37724216    1.11922341    0.00063400
 H                 -4.11952316    3.27985541   -0.00263100
 H                 -5.36660616    1.11955141   -0.00086200
 C                  2.10126577    0.62025316   -0.00056443
 C                  3.49642577    0.62025316   -0.00056443
 C                  4.19396377    1.82800416   -0.00056443
 C                  3.49630977    3.03651316   -0.00176343
 C                  2.10148477    3.03643516   -0.00224243
 C                  1.40388377    1.82822916   -0.00124643
 H                  1.55150677   -0.33206384   -0.00011443
 H                  4.04593377   -0.33225984    0.00075057
 H                  5.29364377    1.82808416    0.00006957
 H                  4.04650977    3.98865616   -0.00182243
 H                  0.30427977    1.82841216   -0.00142643
 C                 -0.28806584    3.87860077   -0.00084664
 O                 -0.61266254    5.56297609   -0.00081528

 1 2 1.5 6 1.5 7 1.0
 2 3 1.5 8 1.0
 3 4 1.5 9 1.0
 4 5 1.5 23 1.0
 5 6 1.5 10 1.0
 6 11 1.0
 7
 8
 9
 10
 11
 12 13 1.5 17 1.5 18 1.0
 13 14 1.5 19 1.0
 14 15 1.5 20 1.0
 15 16 1.5 21 1.0
 16 17 1.5 23 1.0
 17 22 1.0
 18
 19
 20
 21
 22
 23 24 2.0
 24

