%chk=thio.chk
# hf/3-21g geom=connectivity

Title Card Required

0 2
 C                  0.58898735    0.82278480    0.00000000
 S                 -1.19101265    0.82278480    0.00000000
 N                  1.73558735    0.82278480    0.00000000

 1 2 1.0 3 3.0
 2
 3

